20 64 
1 5 1
1 6 1
1 7 1
1 8 1
1 11 1
1 13 1
1 15 1
1 16 1
2 5 1
2 6 1
2 7 1
2 8 1
2 12 1
2 16 1
2 18 1
2 20 1
3 5 1
3 18 1
4 5 1
4 6 1
4 7 1
4 8 1
4 9 1
4 11 1
4 14 1
4 15 1
5 6 1
5 7 1
5 8 1
5 13 1
5 20 1
6 9 1
6 10 1
6 11 1
6 12 1
6 13 1
6 16 1
6 17 1
6 19 1
7 9 1
7 10 1
7 14 1
7 15 1
7 19 1
7 20 1
8 9 1
8 10 1
8 12 1
8 14 1
8 16 1
8 17 1
8 19 1
9 10 1
9 14 1
9 18 1
9 20 1
10 11 1
10 12 1
10 19 1
11 13 1
13 17 1
14 15 1
14 18 1
16 17 1
